76
150
105	16
104	10
103	19
102	12
101	18
100	12
99	12
98	17
97	14
96	14
95	8
94	9
93	12
92	13
91	13
90	13
89	8
88	14
87	11
86	12
85	15
84	9
83	14
82	15
81	16
80	15
79	9
78	12
77	13
76	10
75	15
74	13
73	15
72	14
71	10
70	13
69	8
68	22
67	14
66	18
65	19
64	12
63	13
62	15
61	10
60	15
59	16
58	13
57	11
56	21
55	11
54	12
53	15
52	19
51	15
50	13
49	12
48	12
47	13
46	15
45	19
44	14
43	12
42	15
41	11
40	8
39	9
38	16
37	10
36	15
35	12
34	12
33	13
32	8
31	11
30	6
